(set-logic ALL)
(declare-const k Int)
(declare-fun s () (_ BitVec k))
(declare-fun t () (_ BitVec k))
(assert (not (distinct (bvurem s (bvand (_ bv1 k) (bvlshr t s))) (bvlshr s (bvand t (bvshl (_ bv1 k) s))))))
(check-sat)
